p wcnf 24 42 25
1 -1 0
1 -2 0
1 -3 0
1 -4 0
1 -5 0
1 -6 0
1 -7 0
1 -8 0
1 -9 0
1 -10 0
1 -11 0
1 -12 0
1 -13 0
1 -14 0
1 -15 0
1 -16 0
2 -17 0
2 -18 0
2 -19 0
2 -20 0
25 17 2 4 5 8 0
25 17 10 12 13 16 0
25 18 21 22 0
25 -21 -1 0
25 -21 -3 0
25 -21 -5 0
25 -21 -7 0
25 -22 -9 0
25 -22 -11 0
25 -22 -13 0
25 -22 -15 0
25 19 1 4 6 7 0
25 19 9 12 14 15 0
25 20 23 24 0
25 -23 -2 0
25 -23 -4 0
25 -23 -5 0
25 -23 -7 0
25 -24 -10 0
25 -24 -12 0
25 -24 -13 0
25 -24 -15 0
